c SAT Generator for power-law distributed variable frequencies
c -g u -v 20 -c 91 -k 3 -p 2.750000 -b 3.200000 -f /home/schmidt/Devel/ni-kop-sat/data/ensemble/ruf20-91/ruf20-91-600 -u 1 -U 1 -s 1813927938
p cnf 20 91
-10 11 -13 0
-6 -11 -15 0
-4 8 -17 0
10 11 -17 0
-10 -11 16 0
-11 -16 -18 0
2 -11 -17 0
-1 4 5 0
15 17 -20 0
6 10 16 0
4 -5 6 0
-9 -10 -17 0
10 -17 -19 0
1 17 -19 0
8 9 10 0
9 -14 -17 0
5 -15 17 0
-5 -7 20 0
10 -14 -18 0
-1 7 -10 0
-11 -17 20 0
-9 -15 -19 0
1 6 18 0
-7 -8 -18 0
7 11 18 0
4 -5 -16 0
1 4 19 0
2 -12 20 0
-2 6 20 0
-1 -12 20 0
-12 -19 -20 0
-15 18 -19 0
-10 16 18 0
7 12 13 0
5 7 19 0
-2 6 -15 0
-3 8 16 0
3 -4 -16 0
-3 8 11 0
2 -4 -17 0
-7 -17 -18 0
-7 -13 16 0
3 8 17 0
-5 -7 -17 0
-2 -14 16 0
-5 9 19 0
-1 8 -17 0
-11 13 18 0
2 -7 -16 0
4 13 -14 0
-9 10 20 0
16 -18 -20 0
2 15 -19 0
-2 -8 16 0
-8 13 18 0
11 -16 18 0
1 10 -12 0
4 12 -20 0
-5 6 -10 0
1 8 -16 0
-8 -10 -13 0
7 -13 20 0
7 -8 -10 0
-7 -13 -19 0
11 -14 -15 0
1 -13 14 0
-1 -15 16 0
7 9 10 0
6 -7 -9 0
-4 -15 -19 0
1 4 10 0
10 -11 13 0
9 12 -14 0
3 17 -19 0
6 -10 -18 0
8 15 -16 0
3 4 10 0
3 14 -20 0
6 -7 -19 0
2 3 -17 0
13 -18 20 0
3 -15 -19 0
-6 -7 -14 0
2 -5 -14 0
1 -13 18 0
-3 14 -18 0
-3 6 20 0
4 -9 13 0
-12 -13 -14 0
-5 7 11 0
7 -8 15 0
